c minVC: 82
p edge 100 552
e 5 7
e 1 8
e 2 11
e 3 12
e 4 13
e 5 14
e 7 14
e 11 15
e 2 16
e 4 17
e 5 18
e 7 18
e 15 18
e 17 18
e 1 19
e 5 20
e 7 20
e 14 20
e 2 21
e 11 21
e 6 22
e 2 23
e 8 23
e 3 24
e 12 24
e 10 25
e 2 26
e 11 26
e 21 26
e 1 27
e 8 27
e 23 27
e 5 28
e 17 28
e 18 28
e 20 28
e 10 29
e 25 29
e 3 30
e 4 30
e 12 30
e 13 30
e 2 31
e 16 31
e 21 31
e 23 31
e 26 31
e 11 32
e 15 32
e 10 33
e 29 33
e 1 34
e 8 34
e 19 34
e 23 34
e 27 34
e 9 35
e 4 36
e 13 36
e 15 36
e 17 36
e 18 36
e 32 36
e 10 37
e 25 37
e 29 37
e 33 37
e 4 38
e 13 38
e 30 38
e 10 39
e 25 39
e 29 39
e 33 39
e 37 39
e 2 40
e 15 40
e 23 40
e 31 40
e 32 40
e 2 41
e 8 41
e 16 41
e 23 41
e 31 41
e 34 41
e 40 41
e 3 42
e 12 42
e 24 42
e 30 42
e 1 43
e 8 43
e 19 43
e 27 43
e 34 43
e 19 44
e 34 44
e 35 44
e 43 44
e 1 45
e 8 45
e 19 45
e 27 45
e 34 45
e 43 45
e 44 45
e 10 46
e 22 46
e 25 46
e 29 46
e 33 46
e 37 46
e 39 46
e 9 47
e 1 48
e 8 48
e 23 48
e 27 48
e 34 48
e 43 48
e 45 48
e 3 49
e 12 49
e 17 49
e 24 49
e 28 49
e 42 49
e 10 50
e 21 50
e 29 50
e 33 50
e 37 50
e 39 50
e 46 50
e 9 51
e 16 51
e 35 51
e 47 51
e 2 52
e 8 52
e 23 52
e 27 52
e 31 52
e 34 52
e 40 52
e 41 52
e 48 52
e 9 53
e 35 53
e 44 53
e 51 53
e 5 54
e 15 54
e 17 54
e 18 54
e 32 54
e 36 54
e 40 54
e 8 55
e 16 55
e 23 55
e 27 55
e 31 55
e 34 55
e 41 55
e 48 55
e 52 55
e 5 56
e 7 56
e 17 56
e 18 56
e 20 56
e 28 56
e 54 56
e 4 57
e 6 57
e 13 57
e 22 57
e 38 57
e 8 58
e 16 58
e 19 58
e 23 58
e 27 58
e 34 58
e 35 58
e 41 58
e 43 58
e 44 58
e 48 58
e 52 58
e 53 58
e 55 58
e 3 59
e 12 59
e 24 59
e 30 59
e 42 59
e 49 59
e 16 60
e 34 60
e 35 60
e 44 60
e 51 60
e 53 60
e 55 60
e 58 60
e 19 61
e 35 61
e 43 61
e 44 61
e 53 61
e 58 61
e 60 61
e 9 62
e 35 62
e 53 62
e 61 62
e 4 63
e 13 63
e 15 63
e 17 63
e 30 63
e 32 63
e 36 63
e 57 63
e 6 64
e 11 64
e 22 64
e 32 64
e 57 64
e 8 65
e 23 65
e 27 65
e 34 65
e 40 65
e 41 65
e 48 65
e 52 65
e 55 65
e 58 65
e 33 66
e 47 66
e 50 66
e 51 66
e 2 67
e 6 67
e 11 67
e 15 67
e 21 67
e 26 67
e 32 67
e 64 67
e 1 68
e 27 68
e 48 68
e 6 69
e 11 69
e 21 69
e 22 69
e 26 69
e 33 69
e 37 69
e 39 69
e 46 69
e 50 69
e 64 69
e 67 69
e 68 70
e 3 71
e 12 71
e 24 71
e 30 71
e 42 71
e 49 71
e 59 71
e 8 72
e 23 72
e 27 72
e 34 72
e 41 72
e 48 72
e 52 72
e 55 72
e 65 72
e 68 72
e 1 73
e 8 73
e 19 73
e 27 73
e 34 73
e 43 73
e 45 73
e 48 73
e 65 73
e 68 73
e 70 73
e 72 73
e 5 74
e 7 74
e 14 74
e 18 74
e 20 74
e 28 74
e 56 74
e 5 75
e 15 75
e 17 75
e 18 75
e 32 75
e 36 75
e 40 75
e 54 75
e 56 75
e 1 76
e 8 76
e 23 76
e 27 76
e 34 76
e 41 76
e 43 76
e 45 76
e 48 76
e 52 76
e 55 76
e 58 76
e 65 76
e 68 76
e 72 76
e 73 76
e 9 77
e 47 77
e 51 77
e 66 77
e 47 78
e 51 78
e 66 78
e 77 78
e 4 79
e 13 79
e 15 79
e 17 79
e 18 79
e 32 79
e 36 79
e 54 79
e 63 79
e 75 79
e 5 80
e 7 80
e 14 80
e 18 80
e 20 80
e 28 80
e 56 80
e 74 80
e 1 81
e 8 81
e 19 81
e 23 81
e 27 81
e 34 81
e 43 81
e 44 81
e 45 81
e 48 81
e 52 81
e 55 81
e 58 81
e 60 81
e 61 81
e 65 81
e 73 81
e 76 81
e 6 82
e 22 82
e 57 82
e 64 82
e 69 82
e 2 83
e 11 83
e 21 83
e 26 83
e 64 83
e 67 83
e 69 83
e 2 84
e 8 84
e 16 84
e 23 84
e 31 84
e 34 84
e 41 84
e 52 84
e 55 84
e 58 84
e 60 84
e 65 84
e 81 84
e 8 85
e 23 85
e 27 85
e 34 85
e 40 85
e 41 85
e 48 85
e 52 85
e 55 85
e 58 85
e 65 85
e 72 85
e 76 85
e 81 85
e 84 85
e 3 86
e 12 86
e 24 86
e 42 86
e 49 86
e 59 86
e 71 86
e 3 87
e 4 87
e 12 87
e 13 87
e 30 87
e 38 87
e 42 87
e 49 87
e 59 87
e 71 87
e 86 87
e 6 88
e 22 88
e 25 88
e 37 88
e 39 88
e 46 88
e 64 88
e 69 88
e 82 88
e 29 89
e 33 89
e 37 89
e 50 89
e 66 89
e 9 90
e 35 90
e 53 90
e 62 90
e 5 91
e 7 91
e 14 91
e 18 91
e 20 91
e 28 91
e 56 91
e 74 91
e 80 91
e 1 92
e 8 92
e 27 92
e 34 92
e 43 92
e 45 92
e 48 92
e 68 92
e 70 92
e 73 92
e 76 92
e 81 92
e 29 93
e 33 93
e 37 93
e 50 93
e 66 93
e 89 93
e 9 94
e 16 94
e 47 94
e 51 94
e 66 94
e 77 94
e 78 94
e 8 95
e 23 95
e 27 95
e 48 95
e 52 95
e 65 95
e 68 95
e 70 95
e 72 95
e 76 95
e 85 95
e 10 96
e 25 96
e 29 96
e 33 96
e 37 96
e 39 96
e 46 96
e 50 96
e 89 96
e 93 96
e 4 97
e 6 97
e 13 97
e 22 97
e 38 97
e 57 97
e 63 97
e 64 97
e 82 97
e 88 97
e 5 98
e 7 98
e 14 98
e 20 98
e 28 98
e 56 98
e 74 98
e 80 98
e 91 98
e 2 99
e 16 99
e 23 99
e 31 99
e 34 99
e 35 99
e 41 99
e 51 99
e 52 99
e 53 99
e 55 99
e 58 99
e 60 99
e 84 99
e 2 100
e 16 100
e 23 100
e 26 100
e 31 100
e 41 100
e 51 100
e 52 100
e 55 100
e 58 100
e 60 100
e 84 100
e 99 100
